; benchmark generated from python API
(set-info :status unknown)
(declare-datatypes ((RealState 0)) (((RMk1 (rval1 Real)) (RMk2 (rval2 Real)))))
 (assert
 (forall ((|v17:0| Real) )(forall ((|v16:1| Real) )(forall ((|v15:2| Real) )(forall ((|v14:3| Real) )(forall ((|v13:4| Real) )(forall ((|v12:5| Real) )(exists ((|v11:6_st| RealState) (val!8448 Real) )(exists ((|v10:7_st| RealState) (val!8449 Real) )(exists ((|v9:8_st| RealState) (val!8450 Real) )(exists ((|v8:9_st| RealState) (val!8451 Real) )(exists ((|v7:10_st| RealState) (val!8452 Real) )(exists ((|v6:11_st| RealState) (val!8453 Real) )(forall ((|v5:12| Real) )(forall ((|v4:13| Real) )(forall ((|v3:14| Real) )(forall ((|v2:15| Real) )(forall ((|v1:16| Real) )(forall ((|v0:17| Real) )(let ((?x3095 (- 7.0)))
 (let ((?x122 (* 19.0 |v0:17|)))
 (let ((?x189 (+ (+ (+ (* 11.0 (rval2 |v11:6_st|)) (* (- 15.0) |v2:15|)) (* 5.0 |v15:2|)) ?x122)))
 (let ((?x1371 (+ (+ (+ (* (- 8.0) |v0:17|) (* 16.0 |v14:3|)) (* (- 12.0) |v16:1|)) (* 3.0 |v16:1|))))
 (let ((?x448 (- 10.0)))
 (let ((?x2339 (+ (+ (+ (* 20.0 |v3:14|) (* (- 4.0) |v14:3|)) (* 5.0 |v16:1|)) (* (- 11.0) (rval2 |v6:11_st|)))))
 (let ((?x1457 (+ (+ (+ (* 0.0 |v16:1|) (* (- 6.0) |v17:0|)) (* (- 15.0) |v3:14|)) (* 17.0 |v17:0|))))
 (let (($x454 (and (or (<= ?x1457 13.0) (<= ?x2339 ?x448)) (and (<= ?x1371 5.0) (<= ?x189 ?x3095)))))
 (let ((?x295 (- 11.0)))
 (let ((?x1419 (rval2 |v10:7_st|)))
 (let ((?x2836 (* 7.0 ?x1419)))
 (let ((?x2776 (+ (+ (* ?x295 (rval2 |v11:6_st|)) (* (- 14.0) (rval2 |v8:9_st|))) (* (- 20.0) |v16:1|))))
 (let ((?x216 (- 19.0)))
 (let ((?x1773 (* ?x216 |v1:16|)))
 (let ((?x3125 (- 15.0)))
 (let ((?x2063 (* ?x3125 |v5:12|)))
 (let (($x2667 (<= (+ (+ (+ (* (- 13.0) (rval2 |v9:8_st|)) (* ?x216 |v14:3|)) ?x2063) ?x1773) 4.0)))
 (let ((?x169 (- 5.0)))
 (let ((?x2084 (* 10.0 |v2:15|)))
 (let ((?x1190 (+ (+ (* 6.0 |v5:12|) (* (- 8.0) |v0:17|)) ?x2084)))
 (let ((?x2092 (- 1.0)))
 (let ((?x2145 (+ (+ (* 0.0 |v14:3|) (* (- 14.0) (rval2 |v11:6_st|))) (* (- 3.0) |v12:5|))))
 (let (($x646 (or (<= (+ ?x2145 (* (- 8.0) (rval2 |v8:9_st|))) ?x2092) (<= (+ ?x1190 (* 8.0 |v15:2|)) ?x169))))
 (let ((?x2085 (+ (+ (+ ?x2084 (* (- 17.0) (rval2 |v6:11_st|))) (* (- 3.0) |v14:3|)) (* 2.0 |v16:1|))))
 (let (($x1568 (or (<= ?x2085 2.0) (and (and $x646 (and $x2667 (<= (+ ?x2776 ?x2836) ?x295))) $x454))))
 (let ((?x310 (- 9.0)))
 (let ((?x2423 (+ (+ (+ |v17:0| (* (- 8.0) |v14:3|)) (* 11.0 ?x1419)) (* 2.0 ?x1419))))
 (let ((?x123 (+ (+ (* (- 4.0) (rval2 |v7:10_st|)) (* (- 4.0) (rval2 |v6:11_st|))) (* (- 14.0) (rval2 |v6:11_st|)))))
 (let ((?x754 (* 20.0 |v14:3|)))
 (let ((?x317 (+ (+ (+ (* 20.0 |v16:1|) (* 13.0 (rval2 |v8:9_st|))) (* 7.0 |v17:0|)) ?x754)))
 (let ((?x2254 (+ (+ (+ (* 4.0 |v13:4|) (* 9.0 |v0:17|)) (* ?x3095 |v16:1|)) (* (- 16.0) |v12:5|))))
 (let (($x2379 (and (and (<= ?x2254 11.0) (<= ?x317 11.0)) (or (<= (+ ?x123 (* ?x448 |v13:4|)) 18.0) (<= ?x2423 ?x310)))))
 (let ((?x1459 (* 12.0 |v2:15|)))
 (let ((?x2854 (+ (+ (+ (* 15.0 |v4:13|) (* ?x2092 (rval2 |v8:9_st|))) (* ?x3125 (rval2 |v11:6_st|))) ?x1459)))
 (let ((?x2673 (- 12.0)))
 (let ((?x796 (- 8.0)))
 (let ((?x3377 (* ?x796 |v2:15|)))
 (let ((?x3410 (+ (+ (+ (* 7.0 (rval2 |v6:11_st|)) (* ?x796 (rval2 |v11:6_st|))) ?x3377) (* 4.0 (rval2 |v8:9_st|)))))
 (let ((?x944 (* 15.0 |v5:12|)))
 (let (($x2608 (<= (+ (+ (+ (* ?x448 |v1:16|) (* 13.0 ?x1419)) (* ?x2092 |v14:3|)) ?x944) 20.0)))
 (let ((?x1961 (- 20.0)))
 (let ((?x1101 (* ?x1961 |v2:15|)))
 (let ((?x1243 (+ (+ (+ (* 6.0 |v1:16|) (* ?x3125 |v14:3|)) (* 16.0 (rval2 |v6:11_st|))) ?x1101)))
 (let ((?x1807 (* 9.0 |v3:14|)))
 (let ((?x3359 (+ (+ (+ (* 18.0 |v3:14|) (* ?x310 (rval2 |v6:11_st|))) (* (- 16.0) |v15:2|)) ?x1807)))
 (let ((?x3131 (rval2 |v9:8_st|)))
 (let ((?x791 (* 2.0 ?x3131)))
 (let ((?x2485 (rval2 |v6:11_st|)))
 (let ((?x96 (* 11.0 ?x2485)))
 (let (($x1094 (<= (+ (+ (+ (* (- 18.0) (rval2 |v11:6_st|)) (* 19.0 |v17:0|)) ?x96) ?x791) 7.0)))
 (let ((?x2346 (+ (+ (+ (* ?x3125 |v15:2|) (* ?x1961 |v1:16|)) (* 16.0 |v15:2|)) (* 17.0 |v16:1|))))
 (let (($x1320 (or (or (<= ?x2346 0.0) $x1094) (or (<= ?x3359 ?x2092) (<= ?x1243 17.0)))))
 (let ((?x3325 (* ?x2673 |v13:4|)))
 (let (($x912 (<= (+ (+ (+ (* 7.0 ?x2485) (* 16.0 |v15:2|)) (* ?x169 |v16:1|)) ?x3325) 17.0)))
 (let ((?x2180 (* 14.0 |v13:4|)))
 (let (($x2284 (<= (+ (+ (+ ?x2485 (* 6.0 (rval2 |v11:6_st|))) (* (- 13.0) |v15:2|)) ?x2180) 12.0)))
 (let ((?x3141 (- 3.0)))
 (let ((?x3099 (* 17.0 ?x2485)))
 (let ((?x1906 (+ (+ (+ (* ?x3141 (rval2 |v11:6_st|)) (* 2.0 |v3:14|)) (* 16.0 |v17:0|)) ?x3099)))
 (let ((?x3055 (- 2.0)))
 (let ((?x2353 (* 19.0 ?x3131)))
 (let ((?x65 (+ (+ (+ (* 7.0 |v16:1|) (* 18.0 (rval2 |v8:9_st|))) (* ?x3095 |v5:12|)) ?x2353)))
 (let (($x2189 (and (or (and (and (<= ?x65 ?x3055) (<= ?x1906 ?x3141)) (and $x2284 $x912)) $x1320) (or (and $x2608 (and (<= ?x3410 ?x2673) (<= ?x2854 ?x295))) $x2379))))
 (let ((?x911 (+ (+ (+ ?x2063 (* (- 13.0) |v0:17|)) (* 11.0 (rval2 |v7:10_st|))) (* 16.0 |v16:1|))))
 (let ((?x1292 (- 13.0)))
 (let ((?x1646 (- 17.0)))
 (let ((?x3419 (* ?x1646 ?x2485)))
 (let ((?x815 (+ (+ (+ (* ?x2673 (rval2 |v11:6_st|)) (* ?x796 |v4:13|)) (* ?x3095 (rval2 |v8:9_st|))) ?x3419)))
 (let ((?x2209 (* 4.0 |v3:14|)))
 (let ((?x2630 (+ (+ (+ (* ?x448 ?x2485) (* (- 18.0) (rval2 |v11:6_st|))) (* ?x310 |v1:16|)) ?x2209)))
 (let ((?x2632 (+ (+ (+ (* ?x3095 (rval2 |v11:6_st|)) (* 17.0 |v0:17|)) (* ?x2092 |v3:14|)) (* 14.0 ?x1419))))
 (let (($x141 (and (or (<= ?x2632 12.0) (<= ?x2630 ?x2673)) (or (<= ?x815 ?x1292) (<= ?x911 ?x3141)))))
 (let (($x3152 (<= (+ (+ (+ (* (- 6.0) |v16:1|) ?x2836) (* ?x2673 ?x3131)) (* ?x295 |v13:4|)) ?x169)))
 (let ((?x2719 (rval2 |v8:9_st|)))
 (let ((?x2722 (* 13.0 ?x2719)))
 (let ((?x921 (+ (+ (+ (* 9.0 ?x2485) (* ?x169 (rval2 |v11:6_st|))) (* ?x3141 |v14:3|)) ?x2722)))
 (let ((?x3287 (* ?x3095 ?x2719)))
 (let (($x1183 (<= (+ (+ (+ (* 12.0 |v4:13|) (* ?x295 |v2:15|)) (* 9.0 ?x2719)) ?x3287) 6.0)))
 (let (($x1467 (<= (+ (+ (+ (* 4.0 |v4:13|) ?x3099) (* ?x448 ?x1419)) (* 0.0 |v14:3|)) 19.0)))
 (let ((?x3460 (rval2 |v11:6_st|)))
 (let ((?x1716 (* 4.0 ?x3460)))
 (let (($x3233 (<= (+ (+ (+ (* (- 4.0) |v4:13|) (* (- 16.0) ?x1419)) ?x1716) ?x2084) 14.0)))
 (let ((?x914 (* ?x1646 |v0:17|)))
 (let (($x451 (<= (+ (+ (+ (* (- 4.0) ?x1419) (* 19.0 |v5:12|)) (* ?x3095 |v2:15|)) ?x914) 7.0)))
 (let (($x995 (<= (+ (+ (+ (* ?x3055 |v17:0|) (* 7.0 |v1:16|)) (* ?x310 |v13:4|)) ?x3325) 16.0)))
 (let ((?x2942 (* 13.0 |v4:13|)))
 (let ((?x380 (+ (+ (* ?x169 |v1:16|) (* 8.0 |v2:15|)) ?x2942)))
 (let ((?x2861 (+ (+ (+ (* 15.0 |v2:15|) (* 8.0 |v17:0|)) (* 18.0 |v3:14|)) (* 5.0 |v17:0|))))
 (let ((?x3490 (+ (+ (+ (* (- 16.0) |v2:15|) (* 7.0 ?x2485)) (* 7.0 (rval2 |v7:10_st|))) (* ?x3095 |v13:4|))))
 (let (($x1970 (and (or (<= ?x3490 ?x2092) (<= ?x2861 14.0)) (and (<= (+ ?x380 (* ?x2092 ?x3460)) 18.0) $x995))))
 (let (($x1476 (or (and $x1970 (and $x451 $x3233)) (and (or (and $x1467 $x1183) (and (<= ?x921 ?x1292) $x3152)) $x141))))
 (let ((?x3072 (+ (+ (+ (* ?x448 |v17:0|) (* 5.0 |v12:5|)) (* 9.0 ?x3460)) (* ?x310 (rval2 |v7:10_st|)))))
 (let ((?x1397 (- 14.0)))
 (let ((?x970 (* ?x169 |v0:17|)))
 (let (($x860 (<= (+ (+ (+ (* 10.0 (rval2 |v7:10_st|)) (* 15.0 |v2:15|)) ?x2719) ?x970) ?x1397)))
 (let ((?x3344 (* 2.0 |v0:17|)))
 (let ((?x390 (+ (+ (+ (* 20.0 ?x1419) (* ?x2092 (rval2 |v7:10_st|))) (* 13.0 |v17:0|)) ?x3344)))
 (let ((?x311 (* 11.0 ?x3460)))
 (let ((?x1631 (+ (+ (* ?x3095 |v4:13|) (* 7.0 |v1:16|)) (* 9.0 |v1:16|))))
 (let (($x2606 (and (and (<= (+ ?x1631 ?x311) ?x3125) (<= ?x390 ?x3055)) (or $x860 (<= ?x3072 13.0)))))
 (let ((?x2348 (+ (+ (+ (* ?x310 |v17:0|) (* (- 6.0) ?x2485)) (* 15.0 |v4:13|)) (* ?x310 ?x2719))))
 (let ((?x2066 (* ?x2673 |v0:17|)))
 (let (($x1383 (<= (+ (+ (+ (* 13.0 ?x3131) (* 9.0 ?x2719)) (* 5.0 |v12:5|)) ?x2066) ?x1646)))
 (let (($x608 (<= (+ (+ (+ (* ?x1292 ?x3460) ?x2063) (* 4.0 ?x2485)) (* ?x3095 |v5:12|)) ?x2673)))
 (let ((?x1632 (- 4.0)))
 (let ((?x989 (+ (+ (+ (* 10.0 ?x2719) (* (- 6.0) ?x2485)) (* (- 6.0) ?x3460)) (* ?x1646 (rval2 |v7:10_st|)))))
 (let (($x2168 (and (or (and (<= ?x989 ?x1632) $x608) (or $x1383 (<= ?x2348 15.0))) $x2606)))
 (let ((?x1658 (+ (+ (+ (* ?x1632 ?x3460) (* ?x1397 |v2:15|)) (* ?x1961 |v0:17|)) (* ?x1632 |v13:4|))))
 (let ((?x717 (+ (+ (+ (* ?x3141 |v13:4|) (* 17.0 |v1:16|)) (* ?x3055 |v17:0|)) (* ?x1961 ?x2719))))
 (let ((?x1451 (* 0.0 |v3:14|)))
 (let (($x2038 (<= (+ (+ (+ (* ?x448 |v2:15|) (* 5.0 |v3:14|)) (* 16.0 ?x2719)) ?x1451) 5.0)))
 (let ((?x2023 (* 16.0 |v13:4|)))
 (let (($x1314 (<= (+ (+ (+ (* 16.0 |v1:16|) (* 11.0 (rval2 |v7:10_st|))) ?x96) ?x2023) ?x169)))
 (let (($x2637 (<= (+ (+ (+ (* 10.0 (rval2 |v7:10_st|)) ?x3325) (* 2.0 |v14:3|)) ?x2719) ?x310)))
 (let (($x2536 (<= (+ (+ (+ (* ?x169 ?x3131) (* 10.0 |v17:0|)) (* (- 16.0) |v3:14|)) ?x970) ?x216)))
 (let (($x1468 (<= (+ (+ (+ ?x1419 (* 17.0 |v14:3|)) (* ?x448 |v12:5|)) (* 15.0 |v13:4|)) 18.0)))
 (let (($x2313 (or (and (and $x1468 $x2536) (or $x2637 $x1314)) (and $x2038 (or (<= ?x717 1.0) (<= ?x1658 ?x448))))))
 (let (($x785 (not (= |v6:11_st| (RMk1 val!8453)))))
 (let (($x1017 (not (= |v7:10_st| (RMk1 val!8452)))))
 (let (($x2912 (not (= |v8:9_st| (RMk1 val!8451)))))
 (let (($x2702 (not (= |v9:8_st| (RMk1 val!8450)))))
 (let (($x1978 (not (= |v10:7_st| (RMk1 val!8449)))))
 (let (($x891 (not (= |v11:6_st| (RMk1 val!8448)))))
 (and $x891 $x1978 $x2702 $x2912 $x1017 $x785 (or (and (and $x2313 $x2168) $x1476) (and $x2189 $x1568)))))))))))))))))))))))))))))))))))))))))))))))))))))))))))))))))))))))))))))))))))))))))))))))))))))))))))))))))))))))))))))))
 )
 )
 )
 )
 )
 )
 )
 )
 )
 )
 )
 )
 )
 )
 )
 )
 )
 )
(check-sat)
